296,345
361,569
570,748
737,761
1093,705
761,446
769,420
621,406
596,379
533,258
668,380
681,286
975,257
1166,563
814,474
787,460
667,494
469,194
444,369
504,434
548,338
559,166
721,326
655,393
732,81
912,-48
778,476
681,526
597,939
417,770
664,430
841,487
880,470
1125,336
1080,277
885,806
436,887
531,406
